id: 1234
name: ns1904248
group: miplib2010
method: 2

Gurobi 7.0.2 (linux64, Matlab) logging started Mon Mar 26 10:16:55 2018


Gurobi 7.0.2 (linux64) logging started Mon Mar 26 10:16:55 2018

Optimize a model with 149437 rows, 38458 columns and 377258 nonzeros
Coefficient statistics:
  Matrix range     [3e-01, 1e+02]
  Objective range  [1e+00, 1e+00]
  Bounds range     [1e+00, 1e+00]
  RHS range        [5e-02, 2e+02]
Presolve removed 0 rows and 294 columns
Presolve time: 0.16s
Presolved: 38458 rows, 187559 columns, 415366 nonzeros

Ordering time: 0.20s

Barrier statistics:
 Dense cols : 1
 Free vars  : 1
 AA' NZ     : 3.758e+05
 Factor NZ  : 1.858e+06 (roughly 100 MBytes of memory)
 Factor Ops : 1.693e+08 (less than 1 second per iteration)
 Threads    : 4

                  Objective                Residual
Iter       Primal          Dual         Primal    Dual     Compl     Time
   0  -4.61216000e+04 -1.94476138e-09  1.95e+00 1.32e+02  2.08e+00     1s
   1  -9.92719844e+03  1.11044318e+02  1.11e-01 5.71e+00  1.21e-01     1s
   2  -6.66976869e+03  6.67232946e+01  4.91e-02 4.44e-02  2.85e-02     1s
   3  -1.05228865e+01  1.15182279e+00  8.21e-15 2.00e-04  5.23e-05     1s
   4  -1.05975572e-02  2.30727092e-03  4.50e-16 2.00e-07  5.78e-08     1s
   5  -3.77033405e-08  5.40484260e-08  2.22e-16 4.66e-12  4.11e-13     1s
   6   5.64016320e-10  2.33205678e-08  1.16e-16 1.88e-12  1.02e-13     1s
   7   7.65488854e-09  1.60447851e-08  7.41e-15 6.54e-13  3.76e-14     1s

Barrier solved model in 7 iterations and 0.82 seconds
Optimal objective 7.65488854e-09

Crossover log...

       0 DPushes remaining with DInf 0.0000000e+00                 1s

     253 PPushes remaining with PInf 0.0000000e+00                 1s
       0 PPushes remaining with PInf 0.0000000e+00                 1s

  Push phase complete: Pinf 0.0000000e+00, Dinf 1.9984014e-15      1s

Iteration    Objective       Primal Inf.    Dual Inf.      Time
   10350   -0.0000000e+00   0.000000e+00   0.000000e+00      1s
   10350    0.0000000e+00   0.000000e+00   0.000000e+00      1s

Solved in 10350 iterations and 1.00 seconds
Optimal objective  0.000000000e+00
status: OPTIMAL
